Minimize
	value: tt

Subject to
tt + 500 s_1_1 > 0.0
tt - t_1_1 - 500.000000 s_1_1 > -485.453000
tt + 500 s_2_1 > 0.0
tt - t_2_1 - 500.000000 s_2_1 > -482.945400
tt + 500 s_1_2 > 0.0
tt - t_1_2 - 500.000000 s_1_2 > -467.214100
tt + 500 s_2_2 > 0.0
tt - t_2_2 - 500.000000 s_2_2 > -452.939600
tt + 500 s_1_3 > 0.0
tt - t_1_3 - 500.000000 s_1_3 > -446.905000
tt + 500 s_2_3 > 0.0
tt - t_2_3 - 500.000000 s_2_3 > -419.195000
tt + 500 s_1_4 > 0.0
tt - t_1_4 - 500.000000 s_1_4 > -492.413300
tt + 500 s_2_4 > 0.0
tt - t_2_4 - 500.000000 s_2_4 > -487.699300
tt + 500 s_1_5 > 0.0
tt - t_1_5 - 504.000000 s_1_5 + 4.000000 s_1_3 > -499.335200
tt + 500 s_2_5 > 0.0
tt - t_2_5 - 504.000000 s_2_5 + 4.000000 s_2_3 > -497.794111
s_1_1 + s_2_1  = 1
s_1_2 + s_2_2  = 1
s_1_3 + s_2_3  = 1
s_1_4 + s_2_4  = 1
s_1_5 + s_2_5  = 1
s_1_1 + s_1_2 + 500 r_1_1_2 >= 2
- s_1_1 - s_1_2 - 500 r_1_1_2 >= -501
t_1_1 - t_1_2 - 500.000000 u_1_1_2 + 2048.000000 r_1_1_2 > -467.214100
s_2_1 + s_2_2 + 500 r_2_1_2 >= 2
- s_2_1 - s_2_2 - 500 r_2_1_2 >= -501
t_2_1 - t_2_2 - 500.000000 u_2_1_2 + 2048.000000 r_2_1_2 > -452.939600
s_1_1 + s_1_3 + 500 r_1_1_3 >= 2
- s_1_1 - s_1_3 - 500 r_1_1_3 >= -501
t_1_1 - t_1_3 - 500.000000 u_1_1_3 + 2048.000000 r_1_1_3 > -446.905000
s_2_1 + s_2_3 + 500 r_2_1_3 >= 2
- s_2_1 - s_2_3 - 500 r_2_1_3 >= -501
t_2_1 - t_2_3 - 500.000000 u_2_1_3 + 2048.000000 r_2_1_3 > -419.195000
s_1_1 + s_1_4 + 500 r_1_1_4 >= 2
- s_1_1 - s_1_4 - 500 r_1_1_4 >= -501
t_1_1 - t_1_4 - 500.000000 u_1_1_4 + 2048.000000 r_1_1_4 > -492.413300
s_2_1 + s_2_4 + 500 r_2_1_4 >= 2
- s_2_1 - s_2_4 - 500 r_2_1_4 >= -501
t_2_1 - t_2_4 - 500.000000 u_2_1_4 + 2048.000000 r_2_1_4 > -487.699300
t_1_5 - t_1_1 - 500.000000 s_1_1 > -485.453000
t_1_5 - t_2_1 - 500.000000 s_2_1 > -482.945400
t_2_5 - t_1_1 - 500.000000 s_1_1 > -485.453000
t_2_5 - t_2_1 - 500.000000 s_2_1 > -482.945400
s_1_2 + s_1_1 + 500 r_1_1_2 >= 2
- s_1_2 - s_1_1 - 500 r_1_1_2 >= -501
t_1_2 - t_1_1 + 500.000000 u_1_1_2 + 2048.000000 r_1_1_2 > 14.547000
s_2_2 + s_2_1 + 500 r_2_1_2 >= 2
- s_2_2 - s_2_1 - 500 r_2_1_2 >= -501
t_2_2 - t_2_1 + 500.000000 u_2_1_2 + 2048.000000 r_2_1_2 > 17.054600
s_1_2 + s_1_3 + 500 r_1_2_3 >= 2
- s_1_2 - s_1_3 - 500 r_1_2_3 >= -501
t_1_2 - t_1_3 - 500.000000 u_1_2_3 + 2048.000000 r_1_2_3 > -446.905000
s_2_2 + s_2_3 + 500 r_2_2_3 >= 2
- s_2_2 - s_2_3 - 500 r_2_2_3 >= -501
t_2_2 - t_2_3 - 500.000000 u_2_2_3 + 2048.000000 r_2_2_3 > -419.195000
s_1_2 + s_1_4 + 500 r_1_2_4 >= 2
- s_1_2 - s_1_4 - 500 r_1_2_4 >= -501
t_1_2 - t_1_4 - 500.000000 u_1_2_4 + 2048.000000 r_1_2_4 > -492.413300
s_2_2 + s_2_4 + 500 r_2_2_4 >= 2
- s_2_2 - s_2_4 - 500 r_2_2_4 >= -501
t_2_2 - t_2_4 - 500.000000 u_2_2_4 + 2048.000000 r_2_2_4 > -487.699300
t_1_5 - t_1_2 - 500.000000 s_1_2 > -467.214100
t_1_5 - t_2_2 - 500.000000 s_2_2 > -452.939600
t_2_5 - t_1_2 - 500.000000 s_1_2 > -467.214100
t_2_5 - t_2_2 - 500.000000 s_2_2 > -452.939600
s_1_3 + s_1_1 + 500 r_1_1_3 >= 2
- s_1_3 - s_1_1 - 500 r_1_1_3 >= -501
t_1_3 - t_1_1 + 500.000000 u_1_1_3 + 2048.000000 r_1_1_3 > 14.547000
s_2_3 + s_2_1 + 500 r_2_1_3 >= 2
- s_2_3 - s_2_1 - 500 r_2_1_3 >= -501
t_2_3 - t_2_1 + 500.000000 u_2_1_3 + 2048.000000 r_2_1_3 > 17.054600
s_1_3 + s_1_2 + 500 r_1_2_3 >= 2
- s_1_3 - s_1_2 - 500 r_1_2_3 >= -501
t_1_3 - t_1_2 + 500.000000 u_1_2_3 + 2048.000000 r_1_2_3 > 32.785900
s_2_3 + s_2_2 + 500 r_2_2_3 >= 2
- s_2_3 - s_2_2 - 500 r_2_2_3 >= -501
t_2_3 - t_2_2 + 500.000000 u_2_2_3 + 2048.000000 r_2_2_3 > 47.060400
s_1_3 + s_1_4 + 500 r_1_3_4 >= 2
- s_1_3 - s_1_4 - 500 r_1_3_4 >= -501
t_1_3 - t_1_4 - 500.000000 u_1_3_4 + 2048.000000 r_1_3_4 > -492.413300
s_2_3 + s_2_4 + 500 r_2_3_4 >= 2
- s_2_3 - s_2_4 - 500 r_2_3_4 >= -501
t_2_3 - t_2_4 - 500.000000 u_2_3_4 + 2048.000000 r_2_3_4 > -487.699300
t_1_5 - t_1_3 - 500.000000 s_1_3 > -446.905000
t_1_5 - t_2_3 - 500.000000 s_2_3 > -419.195000
t_2_5 - t_1_3 - 500.000000 s_1_3 > -446.905000
t_2_5 - t_2_3 - 500.000000 s_2_3 > -419.195000
s_1_4 + s_1_1 + 500 r_1_1_4 >= 2
- s_1_4 - s_1_1 - 500 r_1_1_4 >= -501
t_1_4 - t_1_1 + 500.000000 u_1_1_4 + 2048.000000 r_1_1_4 > 14.547000
s_2_4 + s_2_1 + 500 r_2_1_4 >= 2
- s_2_4 - s_2_1 - 500 r_2_1_4 >= -501
t_2_4 - t_2_1 + 500.000000 u_2_1_4 + 2048.000000 r_2_1_4 > 17.054600
s_1_4 + s_1_2 + 500 r_1_2_4 >= 2
- s_1_4 - s_1_2 - 500 r_1_2_4 >= -501
t_1_4 - t_1_2 + 500.000000 u_1_2_4 + 2048.000000 r_1_2_4 > 32.785900
s_2_4 + s_2_2 + 500 r_2_2_4 >= 2
- s_2_4 - s_2_2 - 500 r_2_2_4 >= -501
t_2_4 - t_2_2 + 500.000000 u_2_2_4 + 2048.000000 r_2_2_4 > 47.060400
s_1_4 + s_1_3 + 500 r_1_3_4 >= 2
- s_1_4 - s_1_3 - 500 r_1_3_4 >= -501
t_1_4 - t_1_3 + 500.000000 u_1_3_4 + 2048.000000 r_1_3_4 > 53.095000
s_2_4 + s_2_3 + 500 r_2_3_4 >= 2
- s_2_4 - s_2_3 - 500 r_2_3_4 >= -501
t_2_4 - t_2_3 + 500.000000 u_2_3_4 + 2048.000000 r_2_3_4 > 80.805000
t_1_5 - t_1_4 - 500.000000 s_1_4 > -492.413300
t_1_5 - t_2_4 - 500.000000 s_2_4 > -487.699300
t_2_5 - t_1_4 - 500.000000 s_1_4 > -492.413300
t_2_5 - t_2_4 - 500.000000 s_2_4 > -487.699300
Binary
s_1_1
s_2_1
s_1_2
s_2_2
s_1_3
s_2_3
s_1_4
s_2_4
s_1_5
s_2_5
u_1_1_2
r_1_1_2
u_2_1_2
r_2_1_2
u_1_1_3
r_1_1_3
u_2_1_3
r_2_1_3
u_1_1_4
r_1_1_4
u_2_1_4
r_2_1_4
u_1_2_3
r_1_2_3
u_2_2_3
r_2_2_3
u_1_2_4
r_1_2_4
u_2_2_4
r_2_2_4
u_1_3_4
r_1_3_4
u_2_3_4
r_2_3_4

End
